1071.96 0
0 95 37 38 39 42 41 44 46 47 49 50 51 48 45 43 40 0
0 87 89 92 93 96 94 97 115 110 98 116 100 103 104 99 101 102 0
0 109 21 20 23 26 28 32 35 29 36 34 31 30 33 27 24 22 25 19 16 17 0
0 107 67 69 70 71 74 72 75 78 80 79 77 68 76 73 106 0
0 82 111 86 85 84 117 113 83 6 5 4 3 1 2 81 119 120 0
0 105 53 55 58 56 60 63 66 64 62 61 65 59 57 54 52 0
0 88 112 7 9 10 11 15 14 13 12 8 108 118 18 114 90 91 0